Version identifier: 22.1.1.0 | 2022-11-28 | 9160aff4d
CPXPARAM_ClockType                               1
CPXPARAM_Read_DataCheck                          1
CPXPARAM_Threads                                 1
CPXPARAM_TimeLimit                               7200
CPXPARAM_MIP_Tolerances_AbsMIPGap                0
CPXPARAM_MIP_Tolerances_MIPGap                   0
CPXPARAM_MIP_Tolerances_Integrality              0
Tried aggregator 1 time.
MIP Presolve eliminated 293 rows and 1 columns.
MIP Presolve modified 150 coefficients.
Reduced MIP has 1546 rows, 749 columns, and 4382 nonzeros.
Reduced MIP has 749 binaries, 0 generals, 0 SOSs, and 0 indicators.
Presolve time = 0.00 sec. (3.09 ticks)
Found incumbent of value 10.000000 after 0.02 sec. (10.17 ticks)
Probing time = 0.00 sec. (1.43 ticks)
Tried aggregator 1 time.
Detecting symmetries...
MIP Presolve eliminated 103 rows and 4 columns.
MIP Presolve modified 2 coefficients.
Reduced MIP has 1443 rows, 745 columns, and 4070 nonzeros.
Reduced MIP has 745 binaries, 0 generals, 0 SOSs, and 0 indicators.
Presolve time = 0.01 sec. (4.36 ticks)
Probing time = 0.00 sec. (1.35 ticks)
Clique table members: 2833.
MIP emphasis: balance optimality and feasibility.
MIP search method: dynamic search.
Parallel mode: none, using 1 thread.
Root relaxation solution time = 0.02 sec. (9.71 ticks)

        Nodes                                         Cuts/
   Node  Left     Objective  IInf  Best Integer    Best Bound    ItCnt     Gap

*     0+    0                           10.0000      150.0000              --- 
      0     0      100.0000   322       10.0000      100.0000      401  900.00%
*     0+    0                           22.0000      100.0000           354.55%
      0     0        cutoff             22.0000      100.0000      401  354.55%
Detecting symmetries...
      0     2      100.0000   219       22.0000      100.0000      401  354.55%
Elapsed time = 0.17 sec. (110.13 ticks, tree = 0.01 MB, solutions = 2)
*    35     1      integral     0      100.0000      100.0000     2824    0.00%

Root node processing (before b&c):
  Real time             =    0.17 sec. (110.09 ticks)
Sequential b&c:
  Real time             =    0.12 sec. (103.13 ticks)
                          ------------
Total (root+branch&cut) =    0.29 sec. (213.22 ticks)
Solution is feasible.

---------------------
@@@ MIP_optimal
>>> Benchmark flat50-3.cnf k 2 OPT 100 TimeCost 0.3882749080657959 TimeSolve 0.29883527755737305 TimeRead 0.013135194778442383 TimeTrans 0.07630443572998047
